150
[15,16,17,18,19,20,21,22,23,24,25,26,27,28,29,30,31,32,33,34,35,36,37,38,39,40,41,42,43,44,45,46,47,48,49,50,51,52,53,54,55,56,57,58,59,60,61,62,63,64,65,66,67,68,69,70,71,72,73,74,75,76,77,78,79,80,81,82,83,84,85,86,87,88,89,90,91,92,93,94,95,96,97,98,99,100,101,102,103,104,105,106,107,108,109,110,111,112,113,114,115,116,117,118,119,120]
[9,8,7,8,9,3,5,13,5,5,7,9,5,7,6,7,4,7,7,6,6,7,4,10,10,13,8,7,7,10,7,8,11,7,2,6,4,9,9,8,3,7,2,7,8,7,9,8,11,5,13,4,6,3,8,6,3,7,6,2,11,5,6,8,9,12,5,11,5,5,11,5,8,9,11,4,7,4,3,6,10,8,4,11,6,7,6,7,9,4,4,6,10,5,10,8,4,9,6,4,7,8,10,10,11,6]
